
List of user-set options:

                                    Name   Value                used
                        file_print_level = 5                     yes
                   hessian_approximation = limited-memory        yes
                                  hsllib = /home/ggs24/packages/ThirdParty-HSL/.libs/libcoinhsl.so  yes
                           linear_solver = ma97                  yes
                                max_iter = 100                   yes
                             output_file = IPOPT.out             yes
                             print_level = 0                     yes
                      print_user_options = yes                   yes
                                      sb = yes                   yes
This is Ipopt version 3.14.7, running with linear solver ma97.

Number of nonzeros in equality constraint Jacobian...:        0
Number of nonzeros in inequality constraint Jacobian.:        6
Number of nonzeros in Lagrangian Hessian.............:        0

Total number of variables............................:        6
                     variables with only lower bounds:        0
                variables with lower and upper bounds:        6
                     variables with only upper bounds:        0
Total number of equality constraints.................:        0
Total number of inequality constraints...............:        1
        inequality constraints with only lower bounds:        0
   inequality constraints with lower and upper bounds:        0
        inequality constraints with only upper bounds:        0

iter    objective    inf_pr   inf_du lg(mu)  ||d||  lg(rg) alpha_du alpha_pr  ls
   0  1.4050043e+01 0.00e+00 1.87e+01   0.0 0.00e+00    -  0.00e+00 0.00e+00   0
   1  6.0239547e-01 0.00e+00 2.44e+00   0.7 6.24e+00    -  4.52e-01 7.94e-02f  2
   2  1.0000005e-06 0.00e+00 2.06e+00  -1.6 1.74e-01    -  9.77e-01 1.00e+00f  1
   3  1.0000005e-06 0.00e+00 1.81e-02  -2.4 2.41e-04    -  9.96e-01 1.00e+00f  1
   4  1.0000005e-06 0.00e+00 9.57e-03  -2.4 2.56e-04    -  1.00e+00 1.00e+00f  1
   5  1.0000005e-06 0.00e+00 6.02e-04  -3.6 1.61e-05    -  1.00e+00 1.00e+00f  1
   6  1.0000005e-06 0.00e+00 9.49e-06  -5.4 9.49e-06    -  1.00e+00 1.00e+00f  1
   7  1.0000005e-06 0.00e+00 1.89e-08  -8.1 1.89e-08    -  1.00e+00 1.00e+00f  1
   8  1.0000005e-06 0.00e+00 2.20e-09  -9.0 2.20e-09    -  1.00e+00 1.00e+00f  1

Number of Iterations....: 8

                                   (scaled)                 (unscaled)
Objective...............:   1.0000005000290891e-06    1.0000005000290891e-06
Dual infeasibility......:   2.1971995194169842e-09    2.1971995194169842e-09
Constraint violation....:   0.0000000000000000e+00    0.0000000000000000e+00
Variable bound violation:   0.0000000000000000e+00    0.0000000000000000e+00
Complementarity.........:   9.0909091818154566e-10    9.0909091818154566e-10
Overall NLP error.......:   2.1971995194169842e-09    2.1971995194169842e-09


Number of objective function evaluations             = 14
Number of objective gradient evaluations             = 9
Number of equality constraint evaluations            = 0
Number of inequality constraint evaluations          = 14
Number of equality constraint Jacobian evaluations   = 0
Number of inequality constraint Jacobian evaluations = 9
Number of Lagrangian Hessian evaluations             = 0
Total seconds in IPOPT                               = 0.008

EXIT: Optimal Solution Found.
